(define-fun-rec
  u3
  ((x Int) (y Int)) Int (ite (<= x 0) y (* (u3 (- x 1) y) x)))
(define-fun
  v3
  ((x Int)) Int (u3 x 1))
(define-fun-rec
  u1
  ((x Int) (y Int)) Int (ite (<= x 0) y (div (u1 (- x 1) y) x)))
(define-fun
  h2
  ((x Int)) Int x)
(define-fun
  h1
  ((x Int) (y Int)) Int y)
(define-fun
  h0
  ((x Int)) Int x)
(define-fun
  g3
  ((x Int)) Int x)
(define-fun
  g2
  ((x Int) (y Int)) Int (+ y y))
(define-fun
  g1
  ((x Int)) Int x)
(define-fun
  g0
  ((x Int) (y Int)) Int (+ y y))
(define-fun
  f2
  ((x Int) (y Int)) Int (+ (div y (v3 x)) x))
(define-funs-rec
  ((u2
    ((x Int) (y Int) (z Int)) Int)
   (v2
    ((x Int) (y Int) (z Int)) Int))
  ((ite (<= x 0) y (f2 (u2 (- x 1) y z) (v2 (- x 1) y z)))
   (ite (<= x 0) z (g2 (u2 (- x 1) y z) (v2 (- x 1) y z)))))
(define-fun
  w2
  ((x Int)) Int (u2 x 2 2))
(define-fun
  f0
  ((x Int) (y Int)) Int (+ (u1 x y) x))
(define-funs-rec
  ((u0
    ((x Int) (y Int) (z Int)) Int)
   (v0
    ((x Int) (y Int) (z Int)) Int))
  ((ite (<= x 0) y (f0 (u0 (- x 1) y z) (v0 (- x 1) y z)))
   (ite (<= x 0) z (g0 (u0 (- x 1) y z) (v0 (- x 1) y z)))))
(define-fun
  w0
  ((x Int)) Int (u0 x 2 2))
(assert-not
  (forall ((c Int)) (or (not (>= c 0)) (= (w0 c) (w2 c)))))
